%%%mzn-stat: initTime=0.003429675
%%%mzn-stat: objective=332
%%%mzn-stat: nodes=406
%%%mzn-stat: restarts=0
%%%mzn-stat: peakDepth=73
%%%mzn-stat: solveTime=0.024165428
%%%mzn-stat: variables=352
%%%mzn-stat: propagators=237
%%%mzn-stat: failures=333
%%%mzn-stat: propagations=61279
%%%mzn-stat: nogoods=333
%%%mzn-stat: AverageConflictSize=2.045045045045045
%%%mzn-stat: NumUnitNogoodsLearned=331
%%%mzn-stat: AverageLearnedNogoodLength=1.054054054054054
%%%mzn-stat: AverageBacktrackAmount=0
%%%mzn-stat: AverageLbd=1.006006006006006
%%%mzn-stat-end
maxleg = 332;
succ = array1d(1..20,[10, 1, 12, 14, 16, 7, 5, 20, 18, 6, 13, 2, 17, 3, 8, 11, 9, 19, 15, 4]);
% time elapsed: 0.18 s
----------
==========
% time elapsed: 0.18 s
%%%mzn-stat: initTime=0.003429675
%%%mzn-stat: objective=332
%%%mzn-stat: nodes=406
%%%mzn-stat: restarts=0
%%%mzn-stat: peakDepth=73
%%%mzn-stat: solveTime=0.024169026
%%%mzn-stat: variables=352
%%%mzn-stat: propagators=237
%%%mzn-stat: failures=333
%%%mzn-stat: propagations=61279
%%%mzn-stat: nogoods=333
%%%mzn-stat: AverageConflictSize=2.045045045045045
%%%mzn-stat: NumUnitNogoodsLearned=331
%%%mzn-stat: AverageLearnedNogoodLength=1.054054054054054
%%%mzn-stat: AverageBacktrackAmount=0
%%%mzn-stat: AverageLbd=1.006006006006006
%%%mzn-stat-end
